; benchmark generated from python API
(set-info :status unknown)
(declare-fun x_month () Int)
(declare-fun x_year () Int)
(declare-fun x_day () Int)
(assert
 (let (($x876 (= x_month 4)))
 (let ((?x761 (ite (or $x876 (= x_month 6) (= x_month 9) (= x_month 11)) 30 31)))
 (let (($x525 (= (mod x_year 400) 0)))
 (let (($x555 (= (mod x_year 4) 0)))
 (let ((?x804 (ite (or (and $x555 (and (distinct (mod x_year 100) 0) true)) $x525) 29 28)))
 (let (($x583 (= x_month 2)))
 (let (($x502 (<= x_day (ite $x583 ?x804 ?x761))))
 (let (($x566 (>= x_day 1)))
 (let (($x630 (<= x_month 2)))
 (let (($x487 (>= x_month 1)))
 (let (($x1085 (= x_year 2100)))
 (let (($x1099 (<= x_month 12)))
 (let (($x986 (<= x_year 2099)))
 (let (($x1008 (>= x_year 1901)))
 (or (and (= x_year 1900) (>= x_month 3) $x1099 $x566 $x502) (and $x1008 $x986 $x487 $x1099 $x566 $x502) (and $x1085 $x487 $x630 $x566 $x502)))))))))))))))))
(assert
 (let (($x495 (= x_year 2023)))
 (let (($x557 (and $x495 (or (< x_month 4) (and (= x_month 4) (<= x_day 30))))))
 (not (or (< x_year 2023) $x557)))))
(assert
 (let (($x495 (= x_year 2023)))
(let (($x856 (and $x495 (or (> x_month 5) (and (= x_month 5) (>= x_day 1))))))
(not (or (> x_year 2023) $x856)))))
(check-sat)
